101110101110011011110100000000001000110111110110101001000001110110101101000001000110010001000111000100110000111011010000101011111000000100111100010011100000101011010010011010101000101111111100111000101010011010100100110111010001100111100001101110110110111010011010000111010011111101101110100011100010101101110000001010101011100001011000100111101001111111101111011011001000001101001011111101010100010010010101100100111101010100001001110110110100011000000010101110011111100111010010